200
1000
495
494
491
490
490
490
489
488
486
485
480
479
479
472
469
467
467
465
462
461
461
461
460
457
453
451
451
449
447
444
444
443
442
442
437
436
435
435
435
432
432
431
430
430
429
429
429
425
423
422
421
419
418
415
411
407
404
402
401
400
395
394
394
391
385
384
383
379
377
376
374
373
372
370
369
368
364
363
361
361
361
359
358
358
357
357
353
351
350
346
344
344
342
342
342
341
339
339
336
333
332
331
330
330
326
325
323
317
313
308
306
305
300
297
296
293
292
290
287
287
286
282
281
277
277
273
273
272
272
271
267
265
261
259
258
254
254
254
253
253
249
248
248
247
247
246
246
246
244
243
243
242
241
241
240
240
240
239
236
235
234
234
233
233
230
229
228
226
221
221
220
217
215
215
210
208
206
204
203
202
200
198
197
197
191
191
184
181
181
180
179
175
174
173
173
172
171
171
169
168
